; DUP2 SWAP1 DUP4 SWAP1 DUP2 SWAP1 => DUP3 DUP1 DUP4 SWAP3
(set-option :produce-proofs true)
; 
(set-info :status unknown)
(declare-fun storage_t ((_ BitVec 256) (_ BitVec 256) (_ BitVec 256) Int (_ BitVec 256)) (_ BitVec 256))
(declare-fun storage_s ((_ BitVec 256) (_ BitVec 256) (_ BitVec 256) Int (_ BitVec 256)) (_ BitVec 256))
(declare-fun exc_halt_t (Int) Bool)
(declare-fun exc_halt_s (Int) Bool)
(declare-fun sc_t (Int) (_ BitVec 6))
(declare-fun stack_t ((_ BitVec 256) (_ BitVec 256) (_ BitVec 256) Int (_ BitVec 6)) (_ BitVec 256))
(declare-fun stack_s ((_ BitVec 256) (_ BitVec 256) (_ BitVec 256) Int (_ BitVec 6)) (_ BitVec 256))
(declare-fun sc_s (Int) (_ BitVec 6))
(declare-fun used_gas_t ((_ BitVec 256) (_ BitVec 256) (_ BitVec 256) Int) Int)
(declare-fun used_gas_s ((_ BitVec 256) (_ BitVec 256) (_ BitVec 256) Int) Int)
(assert
 (exists ((x_0 (_ BitVec 256)) (x_1 (_ BitVec 256)) (x_2 (_ BitVec 256)) )(let (($x2497 (forall ((w (_ BitVec 256)) )(let ((?x5731 (storage_t x_0 x_1 x_2 4 w)))
 (let ((?x5484 (storage_s x_0 x_1 x_2 6 w)))
 (= ?x5484 ?x5731))))
 ))
 (let (($x7854 (exc_halt_t 4)))
 (let (($x772 (exc_halt_s 6)))
 (let (($x4404 (= $x772 $x7854)))
 (let (($x10363 (forall ((n (_ BitVec 6)) )(let ((?x4818 (sc_t 4)))
 (let (($x8757 (bvsle ?x4818 n)))
 (let ((?x1905 (stack_t x_0 x_1 x_2 4 n)))
 (let ((?x4232 (stack_s x_0 x_1 x_2 6 n)))
 (let (($x8712 (= ?x4232 ?x1905)))
 (or $x8712 $x8757)))))))
 ))
 (let ((?x4818 (sc_t 4)))
 (let ((?x926 (sc_s 6)))
 (let (($x7899 (= ?x926 ?x4818)))
 (let ((?x1928 (used_gas_t x_0 x_1 x_2 0)))
 (let ((?x9075 (used_gas_s x_0 x_1 x_2 0)))
 (let (($x577 (= ?x9075 ?x1928)))
 (let (($x8840 (forall ((w (_ BitVec 256)) )(let ((?x5825 (storage_t x_0 x_1 x_2 0 w)))
 (let ((?x10407 (storage_s x_0 x_1 x_2 0 w)))
 (= ?x10407 ?x5825))))
 ))
 (let (($x56 (exc_halt_t 0)))
 (let (($x57 (exc_halt_s 0)))
 (let (($x58 (= $x57 $x56)))
 (let (($x9058 (forall ((n (_ BitVec 6)) )(let ((?x63 (sc_t 0)))
 (let (($x4813 (bvsle ?x63 n)))
 (let ((?x830 (stack_t x_0 x_1 x_2 0 n)))
 (let ((?x5305 (stack_s x_0 x_1 x_2 0 n)))
 (let (($x1972 (= ?x5305 ?x830)))
 (or $x1972 $x4813)))))))
 ))
 (let ((?x63 (sc_t 0)))
 (let ((?x72 (sc_s 0)))
 (let (($x73 (= ?x72 ?x63)))
 (let (($x1802 (= $x7854 (or (exc_halt_t 3) (not (bvsle (_ bv0 6) (bvadd (_ bv60 6) (sc_t 3))))))))
 (let (($x1387 (forall ((w (_ BitVec 256)) )(let ((?x8751 (storage_t x_0 x_1 x_2 3 w)))
 (let ((?x5731 (storage_t x_0 x_1 x_2 4 w)))
 (= ?x5731 ?x8751))))
 ))
 (let (($x37 (forall ((n (_ BitVec 6)) )(let ((?x6438 (sc_t 3)))
 (let ((?x2938 (bvadd (_ bv60 6) ?x6438)))
 (let (($x10999 (bvsle ?x2938 n)))
 (let ((?x10780 (stack_t x_0 x_1 x_2 3 n)))
 (let ((?x1905 (stack_t x_0 x_1 x_2 4 n)))
 (or (= ?x1905 ?x10780) $x10999)))))))
 ))
 (let ((?x6438 (sc_t 3)))
 (let (($x9676 (= ?x4818 ?x6438)))
 (let (($x11783 (= (used_gas_t x_0 x_1 x_2 4) (+ 3 (used_gas_t x_0 x_1 x_2 3)))))
 (let (($x7200 (= (stack_t x_0 x_1 x_2 4 (bvadd (_ bv62 6) ?x4818)) (stack_t x_0 x_1 x_2 3 (bvadd (_ bv62 6) ?x6438)))))
 (let (($x9634 (= (stack_t x_0 x_1 x_2 4 (bvadd (_ bv61 6) ?x4818)) (stack_t x_0 x_1 x_2 3 (bvadd (_ bv61 6) ?x6438)))))
 (let ((?x10811 (bvadd (_ bv63 6) ?x6438)))
 (let ((?x11271 (stack_t x_0 x_1 x_2 3 ?x10811)))
 (let (($x9279 (= (stack_t x_0 x_1 x_2 4 (bvadd (_ bv63 6) ?x4818)) (stack_t x_0 x_1 x_2 3 (bvadd (_ bv60 6) ?x6438)))))
 (let (($x11620 (not (= ((_ extract 6 6) (bvadd (_ bv1 7) (concat (_ bv0 1) (sc_t 2)))) (_ bv0 1)))))
 (let (($x2163 (exc_halt_t 2)))
 (let (($x6783 (exc_halt_t 3)))
 (let (($x3380 (forall ((w (_ BitVec 256)) )(let ((?x9104 (storage_t x_0 x_1 x_2 2 w)))
 (let ((?x8751 (storage_t x_0 x_1 x_2 3 w)))
 (= ?x8751 ?x9104))))
 ))
 (let (($x1245 (forall ((n (_ BitVec 6)) )(let ((?x3054 (stack_t x_0 x_1 x_2 2 n)))
 (let ((?x10780 (stack_t x_0 x_1 x_2 3 n)))
 (or (= ?x10780 ?x3054) (bvsle (bvadd (_ bv60 6) (sc_t 2)) n)))))
 ))
 (let (($x1811 (= ?x6438 (bvadd (_ bv1 6) (sc_t 2)))))
 (let ((?x5750 (used_gas_t x_0 x_1 x_2 3)))
 (let ((?x2714 (sc_t 2)))
 (let ((?x7128 (bvadd (_ bv63 6) ?x2714)))
 (let ((?x4858 (stack_t x_0 x_1 x_2 2 ?x7128)))
 (let (($x2152 (= (stack_t x_0 x_1 x_2 3 (bvadd (_ bv62 6) ?x2714)) (stack_t x_0 x_1 x_2 2 (bvadd (_ bv62 6) ?x2714)))))
 (let (($x3593 (= (stack_t x_0 x_1 x_2 3 (bvadd (_ bv61 6) ?x2714)) (stack_t x_0 x_1 x_2 2 (bvadd (_ bv61 6) ?x2714)))))
 (let ((?x3518 (bvadd (_ bv60 6) ?x2714)))
 (let ((?x8126 (stack_t x_0 x_1 x_2 2 ?x3518)))
 (let (($x8583 (not (= ((_ extract 6 6) (bvadd (_ bv1 7) (concat (_ bv0 1) (sc_t 1)))) (_ bv0 1)))))
 (let (($x8377 (exc_halt_t 1)))
 (let (($x1925 (forall ((w (_ BitVec 256)) )(let ((?x10092 (storage_t x_0 x_1 x_2 1 w)))
 (let ((?x9104 (storage_t x_0 x_1 x_2 2 w)))
 (= ?x9104 ?x10092))))
 ))
 (let (($x295 (forall ((n (_ BitVec 6)) )(let ((?x735 (stack_t x_0 x_1 x_2 1 n)))
 (let ((?x3054 (stack_t x_0 x_1 x_2 2 n)))
 (or (= ?x3054 ?x735) (bvsle (bvadd (_ bv63 6) (sc_t 1)) n)))))
 ))
 (let (($x8229 (= ?x2714 (bvadd (_ bv1 6) (sc_t 1)))))
 (let ((?x11278 (used_gas_t x_0 x_1 x_2 2)))
 (let ((?x7154 (sc_t 1)))
 (let ((?x2437 (bvadd (_ bv63 6) ?x7154)))
 (let ((?x11527 (stack_t x_0 x_1 x_2 1 ?x2437)))
 (let (($x41 (not (= ((_ extract 6 6) (bvadd (_ bv1 7) (concat (_ bv0 1) ?x63))) (_ bv0 1)))))
 (let (($x438 (forall ((w (_ BitVec 256)) )(let ((?x5825 (storage_t x_0 x_1 x_2 0 w)))
 (let ((?x10092 (storage_t x_0 x_1 x_2 1 w)))
 (= ?x10092 ?x5825))))
 ))
 (let (($x4108 (forall ((n (_ BitVec 6)) )(let ((?x830 (stack_t x_0 x_1 x_2 0 n)))
 (let ((?x735 (stack_t x_0 x_1 x_2 1 n)))
 (or (= ?x735 ?x830) (bvsle (bvadd (_ bv61 6) (sc_t 0)) n)))))
 ))
 (let (($x471 (= ?x7154 (bvadd (_ bv1 6) ?x63))))
 (let (($x9600 (= (stack_t x_0 x_1 x_2 1 (bvadd (_ bv63 6) ?x63)) (stack_t x_0 x_1 x_2 0 (bvadd (_ bv63 6) ?x63)))))
 (let (($x11340 (= (stack_t x_0 x_1 x_2 1 (bvadd (_ bv62 6) ?x63)) (stack_t x_0 x_1 x_2 0 (bvadd (_ bv62 6) ?x63)))))
 (let ((?x10396 (bvadd (_ bv61 6) ?x63)))
 (let ((?x9810 (stack_t x_0 x_1 x_2 0 ?x10396)))
 (let (($x2581 (= $x772 (or (exc_halt_s 5) (not (bvsle (_ bv0 6) (bvadd (_ bv62 6) (sc_s 5))))))))
 (let (($x2644 (forall ((w (_ BitVec 256)) )(let ((?x3697 (storage_s x_0 x_1 x_2 5 w)))
 (let ((?x5484 (storage_s x_0 x_1 x_2 6 w)))
 (= ?x5484 ?x3697))))
 ))
 (let (($x4274 (forall ((n (_ BitVec 6)) )(let ((?x4319 (sc_s 5)))
 (let ((?x10792 (bvadd (_ bv62 6) ?x4319)))
 (let (($x11409 (bvsle ?x10792 n)))
 (let ((?x11763 (stack_s x_0 x_1 x_2 5 n)))
 (let ((?x4232 (stack_s x_0 x_1 x_2 6 n)))
 (or (= ?x4232 ?x11763) $x11409)))))))
 ))
 (let ((?x4319 (sc_s 5)))
 (let (($x4730 (= ?x926 ?x4319)))
 (let (($x3841 (= (used_gas_s x_0 x_1 x_2 6) (+ 3 (used_gas_s x_0 x_1 x_2 5)))))
 (let ((?x4438 (bvadd (_ bv63 6) ?x4319)))
 (let ((?x10316 (stack_s x_0 x_1 x_2 5 ?x4438)))
 (let (($x5769 (= (stack_s x_0 x_1 x_2 6 (bvadd (_ bv63 6) ?x926)) (stack_s x_0 x_1 x_2 5 (bvadd (_ bv62 6) ?x4319)))))
 (let (($x10640 (not (= ((_ extract 6 6) (bvadd (_ bv1 7) (concat (_ bv0 1) (sc_s 4)))) (_ bv0 1)))))
 (let (($x7172 (exc_halt_s 4)))
 (let (($x11317 (exc_halt_s 5)))
 (let (($x6495 (forall ((w (_ BitVec 256)) )(let ((?x6440 (storage_s x_0 x_1 x_2 4 w)))
 (let ((?x3697 (storage_s x_0 x_1 x_2 5 w)))
 (= ?x3697 ?x6440))))
 ))
 (let (($x5850 (forall ((n (_ BitVec 6)) )(let ((?x9725 (stack_s x_0 x_1 x_2 4 n)))
 (let ((?x11763 (stack_s x_0 x_1 x_2 5 n)))
 (or (= ?x11763 ?x9725) (bvsle (bvadd (_ bv62 6) (sc_s 4)) n)))))
 ))
 (let (($x628 (= ?x4319 (bvadd (_ bv1 6) (sc_s 4)))))
 (let ((?x2654 (used_gas_s x_0 x_1 x_2 5)))
 (let ((?x4305 (sc_s 4)))
 (let ((?x3271 (bvadd (_ bv63 6) ?x4305)))
 (let ((?x5698 (stack_s x_0 x_1 x_2 4 ?x3271)))
 (let ((?x2554 (bvadd (_ bv62 6) ?x4305)))
 (let ((?x11441 (stack_s x_0 x_1 x_2 4 ?x2554)))
 (let (($x4663 (= $x7172 (or (exc_halt_s 3) (not (bvsle (_ bv0 6) (bvadd (_ bv62 6) (sc_s 3))))))))
 (let (($x11171 (forall ((w (_ BitVec 256)) )(let ((?x10083 (storage_s x_0 x_1 x_2 3 w)))
 (let ((?x6440 (storage_s x_0 x_1 x_2 4 w)))
 (= ?x6440 ?x10083))))
 ))
 (let (($x9255 (forall ((n (_ BitVec 6)) )(let ((?x275 (sc_s 3)))
 (let ((?x7506 (bvadd (_ bv62 6) ?x275)))
 (let (($x4522 (bvsle ?x7506 n)))
 (let ((?x8422 (stack_s x_0 x_1 x_2 3 n)))
 (let ((?x9725 (stack_s x_0 x_1 x_2 4 n)))
 (or (= ?x9725 ?x8422) $x4522)))))))
 ))
 (let ((?x275 (sc_s 3)))
 (let (($x3610 (= ?x4305 ?x275)))
 (let ((?x4185 (used_gas_s x_0 x_1 x_2 4)))
 (let (($x1968 (not (= ((_ extract 6 6) (bvadd (_ bv1 7) (concat (_ bv0 1) (sc_s 2)))) (_ bv0 1)))))
 (let (($x247 (exc_halt_s 2)))
 (let (($x292 (exc_halt_s 3)))
 (let (($x4717 (forall ((w (_ BitVec 256)) )(let ((?x5069 (storage_s x_0 x_1 x_2 2 w)))
 (let ((?x10083 (storage_s x_0 x_1 x_2 3 w)))
 (= ?x10083 ?x5069))))
 ))
 (let (($x3600 (forall ((n (_ BitVec 6)) )(let ((?x6980 (stack_s x_0 x_1 x_2 2 n)))
 (let ((?x8422 (stack_s x_0 x_1 x_2 3 n)))
 (or (= ?x8422 ?x6980) (bvsle (bvadd (_ bv60 6) (sc_s 2)) n)))))
 ))
 (let (($x10323 (= ?x275 (bvadd (_ bv1 6) (sc_s 2)))))
 (let ((?x4758 (used_gas_s x_0 x_1 x_2 3)))
 (let ((?x218 (sc_s 2)))
 (let ((?x616 (bvadd (_ bv63 6) ?x218)))
 (let ((?x4250 (stack_s x_0 x_1 x_2 2 ?x616)))
 (let ((?x3324 (bvadd (_ bv62 6) ?x218)))
 (let ((?x3174 (stack_s x_0 x_1 x_2 2 ?x3324)))
 (let (($x5752 (= (stack_s x_0 x_1 x_2 3 (bvadd (_ bv61 6) ?x218)) (stack_s x_0 x_1 x_2 2 (bvadd (_ bv61 6) ?x218)))))
 (let ((?x5567 (bvadd (_ bv60 6) ?x218)))
 (let ((?x6331 (stack_s x_0 x_1 x_2 2 ?x5567)))
 (let (($x9849 (= $x247 (or (exc_halt_s 1) (not (bvsle (_ bv0 6) (bvadd (_ bv62 6) (sc_s 1))))))))
 (let (($x5653 (forall ((w (_ BitVec 256)) )(let ((?x4309 (storage_s x_0 x_1 x_2 1 w)))
 (let ((?x5069 (storage_s x_0 x_1 x_2 2 w)))
 (= ?x5069 ?x4309))))
 ))
 (let (($x8677 (forall ((n (_ BitVec 6)) )(let ((?x1248 (stack_s x_0 x_1 x_2 1 n)))
 (let ((?x6980 (stack_s x_0 x_1 x_2 2 n)))
 (let ((?x154 (sc_s 1)))
 (let ((?x1237 (bvadd (_ bv62 6) ?x154)))
 (let (($x3989 (bvsle ?x1237 n)))
 (or $x3989 (= ?x6980 ?x1248))))))))
 ))
 (let ((?x154 (sc_s 1)))
 (let (($x10978 (= ?x218 ?x154)))
 (let ((?x4223 (used_gas_s x_0 x_1 x_2 2)))
 (let (($x6624 (not (= ((_ extract 6 6) (bvadd (_ bv1 7) (concat (_ bv0 1) ?x72))) (_ bv0 1)))))
 (let (($x5593 (not (bvsle (_ bv0 6) (bvadd (_ bv62 6) ?x72)))))
 (let (($x189 (exc_halt_s 1)))
 (let (($x4338 (forall ((w (_ BitVec 256)) )(let ((?x10407 (storage_s x_0 x_1 x_2 0 w)))
 (let ((?x4309 (storage_s x_0 x_1 x_2 1 w)))
 (= ?x4309 ?x10407))))
 ))
 (let (($x2009 (forall ((n (_ BitVec 6)) )(let ((?x5305 (stack_s x_0 x_1 x_2 0 n)))
 (let ((?x1248 (stack_s x_0 x_1 x_2 1 n)))
 (let ((?x72 (sc_s 0)))
 (let ((?x4112 (bvadd (_ bv62 6) ?x72)))
 (let (($x1964 (bvsle ?x4112 n)))
 (or $x1964 (= ?x1248 ?x5305))))))))
 ))
 (let (($x2373 (= ?x154 (bvadd (_ bv1 6) ?x72))))
 (let (($x1030 (= (stack_s x_0 x_1 x_2 1 (bvadd (_ bv63 6) ?x72)) (stack_s x_0 x_1 x_2 0 (bvadd (_ bv63 6) ?x72)))))
 (let ((?x4112 (bvadd (_ bv62 6) ?x72)))
 (let ((?x2525 (stack_s x_0 x_1 x_2 0 ?x4112)))
 (let (($x6694 (forall ((w (_ BitVec 256)) )(let ((?x10407 (storage_s x_0 x_1 x_2 0 w)))
 (= ?x10407 (_ bv0 256))))
 ))
 (let (($x10473 (= ?x9075 0)))
 (let (($x5107 (not $x57)))
 (let (($x6105 (= (stack_s x_0 x_1 x_2 0 (_ bv2 6)) x_2)))
 (let (($x2621 (= (stack_s x_0 x_1 x_2 0 (_ bv1 6)) x_1)))
 (let (($x4353 (= (stack_s x_0 x_1 x_2 0 (_ bv0 6)) x_0)))
 (let (($x11906 (= ?x72 (_ bv3 6))))
 (and $x11906 $x4353 $x2621 $x6105 $x5107 $x10473 $x6694 (= (stack_s x_0 x_1 x_2 1 (bvadd (_ bv63 6) ?x154)) ?x2525) (= (stack_s x_0 x_1 x_2 1 ?x4112) ?x2525) $x1030 (= (used_gas_s x_0 x_1 x_2 1) (+ 3 ?x9075)) $x2373 $x2009 $x4338 (= $x189 (or $x57 $x5593 $x6624)) (= ?x4250 (stack_s x_0 x_1 x_2 1 (bvadd (_ bv62 6) ?x154))) (= ?x3174 (stack_s x_0 x_1 x_2 1 (bvadd (_ bv63 6) ?x154))) (= ?x4223 (+ 3 (used_gas_s x_0 x_1 x_2 1))) $x10978 $x8677 $x5653 $x9849 (= (stack_s x_0 x_1 x_2 3 (bvadd (_ bv63 6) ?x275)) ?x6331) (= (stack_s x_0 x_1 x_2 3 ?x5567) ?x6331) $x5752 (= (stack_s x_0 x_1 x_2 3 ?x3324) ?x3174) (= (stack_s x_0 x_1 x_2 3 ?x616) ?x4250) (= ?x4758 (+ 3 ?x4223)) $x10323 $x3600 $x4717 (= $x292 (or $x247 $x1968 (not (bvsle (_ bv0 6) ?x5567)))) (= ?x5698 (stack_s x_0 x_1 x_2 3 (bvadd (_ bv62 6) ?x275))) (= ?x11441 (stack_s x_0 x_1 x_2 3 (bvadd (_ bv63 6) ?x275))) (= ?x4185 (+ 3 ?x4758)) $x3610 $x9255 $x11171 $x4663 (= ?x10316 ?x11441) (= (stack_s x_0 x_1 x_2 5 ?x2554) ?x11441) (= (stack_s x_0 x_1 x_2 5 ?x3271) ?x5698) (= ?x2654 (+ 3 ?x4185)) $x628 $x5850 $x6495 (= $x11317 (or (not (bvsle (_ bv0 6) ?x2554)) $x7172 $x10640)) $x5769 (= (stack_s x_0 x_1 x_2 6 (bvadd (_ bv62 6) ?x926)) ?x10316) $x3841 $x4730 $x4274 $x2644 $x2581 (= ?x11527 ?x9810) (= (stack_t x_0 x_1 x_2 1 ?x10396) ?x9810) $x11340 $x9600 (= (used_gas_t x_0 x_1 x_2 1) (+ 3 ?x1928)) $x471 $x4108 $x438 (= $x8377 (or $x41 $x56 (not (bvsle (_ bv0 6) ?x10396)))) (= ?x4858 ?x11527) (= (stack_t x_0 x_1 x_2 2 ?x2437) ?x11527) (= ?x11278 (+ 3 (used_gas_t x_0 x_1 x_2 1))) $x8229 $x295 $x1925 (= $x2163 (or (not (bvsle (_ bv0 6) ?x2437)) $x8377 $x8583)) (= ?x11271 ?x8126) (= (stack_t x_0 x_1 x_2 3 ?x3518) ?x8126) $x3593 $x2152 (= (stack_t x_0 x_1 x_2 3 ?x7128) ?x4858) (= ?x5750 (+ 3 ?x11278)) $x1811 $x1245 $x3380 (= $x6783 (or (not (bvsle (_ bv0 6) ?x3518)) $x2163 $x11620)) $x9279 (= (stack_t x_0 x_1 x_2 4 (bvadd (_ bv60 6) ?x4818)) ?x11271) $x9634 $x7200 $x11783 $x9676 $x37 $x1387 $x1802 $x73 $x9058 $x58 $x8840 $x577 (not (and $x7899 $x10363 $x4404 $x2497)))))))))))))))))))))))))))))))))))))))))))))))))))))))))))))))))))))))))))))))))))))))))))))))))))))))))))))))))))))))))))))))))
 )
(check-sat)
(get-proof)
